0 0 0 0
0 1 0 0
0 2 0 0
0 3 1 0
0 4 0 2
0 5 0 3
0 6 0 2
0 7 1 2
0 8 0 2
0 9 0 7
0 10 0 2
0 11 0 5
0 12 2 7
0 13 2 2
0 14 2 5
0 15 1 5
0 16 0 12
0 17 1 12
0 18 0 13
0 19 1 17
0 20 0 17
0 21 0 20
0 22 1 21
0 23 0 17
0 24 0 23
0 25 0 9
0 26 0 24
0 27 1 14
0 28 0 29
0 29 1 22
0 30 0 22
0 31 0 35
